p cnf 14 25
-14 -13 4 0
14 -10 -7 0
-14 9 -1 0
14 7 -6 0
-14 7 -5 0
-13 -11 10 0
13 11 -3 0
13 -7 -6 0
12 11 10 0
12 11 1 0
-12 10 -6 0
-12 9 -3 0
-12 -8 3 0
12 7 1 0
12 6 -2 0
12 5 1 0
11 -9 -3 0
-11 6 1 0
-9 7 -4 0
8 2 1 0
7 -4 1 0
7 -2 -1 0
6 2 -1 0
-5 4 -3 0
-4 3 -1 0
